
Gurobi 9.5.0 (linux64) logging started Wed Nov 15 11:41:01 2023

Set parameter LogFile to value "/lustre1/scratch/348/vsc34888/JointResearch/05.Models/06.Benchmarking/D.Representative_days_based_on_RES_and_Demand/RTS24_mod1_ByStages_nc20/openStarNet_RTS24_mod1_ByStages_nc20.log"
Set parameter Method to value 2
Set parameter MIPFocus to value 1
Set parameter Presolve to value 2
Set parameter RINS to value 100
Set parameter MIPGap to value 0.01
Set parameter Threads to value 36
Set parameter TimeLimit to value 604800
Set parameter IterationLimit to value 760000000
Gurobi Optimizer version 9.5.0 build v9.5.0rc5 (linux64)
Thread count: 36 physical cores, 36 logical processors, using up to 36 threads
Optimize a model with 8118 rows, 5171 columns and 20136 nonzeros
Model fingerprint: 0x10a9ad9d
Variable types: 5155 continuous, 16 integer (16 binary)
Coefficient statistics:
  Matrix range     [1e-02, 3e+04]
  Objective range  [1e+00, 1e+00]
  Bounds range     [4e-05, 2e+00]
  RHS range        [4e-05, 2e+00]
Presolve removed 5325 rows and 2612 columns
Presolve time: 0.02s
Presolved: 2793 rows, 2559 columns, 9841 nonzeros
Variable types: 2543 continuous, 16 integer (16 binary)
Found heuristic solution: objective 190.7935156
Root relaxation presolved: 2793 rows, 2559 columns, 9841 nonzeros

Root barrier log...

Ordering time: 0.04s

Barrier statistics:
 AA' NZ     : 6.804e+04
 Factor NZ  : 3.860e+05 (roughly 5 MB of memory)
 Factor Ops : 9.680e+07 (less than 1 second per iteration)
 Threads    : 36

                  Objective                Residual
Iter       Primal          Dual         Primal    Dual     Compl     Time
   0   7.53496917e+05 -6.92290211e+07  6.10e+00 3.42e+02  2.42e+04     0s
   1   6.37840894e+04 -1.45699069e+07  3.99e-01 8.82e-11  2.70e+03     0s
   2   2.93410590e+04 -1.22595901e+06  8.27e-02 1.80e-10  2.11e+02     0s
   3   1.72527814e+04 -1.45464520e+05  2.99e-03 2.40e-11  2.42e+01     0s
   4   3.94065292e+03 -1.95356703e+04  1.96e-04 1.46e-11  3.48e+00     0s
   5   9.45943763e+02 -3.23639919e+03  3.08e-05 7.28e-12  6.19e-01     0s
   6   4.00051708e+02 -1.08947233e+03  4.72e-06 7.28e-12  2.20e-01     0s
   7   2.93598675e+02 -5.66206424e+02  2.50e-06 3.64e-12  1.27e-01     0s
   8   2.03809847e+02 -2.12652373e+02  1.28e-06 7.28e-12  6.16e-02     0s
   9   1.57025800e+02 -5.59655088e+01  7.05e-07 3.64e-12  3.15e-02     0s
  10   1.33964743e+02  4.80096887e+01  4.35e-07 3.64e-12  1.27e-02     0s
  11   1.00965630e+02  8.49510701e+01  6.96e-08 3.64e-12  2.37e-03     0s
  12   9.68469857e+01  9.22379987e+01  2.88e-08 3.64e-12  6.82e-04     0s
  13   9.49351764e+01  9.31014769e+01  9.77e-09 3.64e-12  2.71e-04     0s
  14   9.42287220e+01  9.36686889e+01  3.04e-09 3.64e-12  8.29e-05     0s
  15   9.41121546e+01  9.38579700e+01  1.94e-09 3.64e-12  3.76e-05     0s
  16   9.40981584e+01  9.38899171e+01  1.80e-09 7.28e-12  3.08e-05     0s
  17   9.39078577e+01  9.39031990e+01  5.32e-10 3.64e-12  6.90e-07     0s
  18   9.39053926e+01  9.39053875e+01  9.30e-12 7.28e-12  7.45e-10     0s
  19   9.39053901e+01  9.39053901e+01  2.49e-11 3.64e-12  7.45e-13     0s

Barrier solved model in 19 iterations and 0.40 seconds (0.12 work units)
Optimal objective 9.39053901e+01


Root relaxation: objective 9.390539e+01, 337 iterations, 0.36 seconds (0.08 work units)

    Nodes    |    Current Node    |     Objective Bounds      |     Work
 Expl Unexpl |  Obj  Depth IntInf | Incumbent    BestBd   Gap | It/Node Time

     0     0   93.90539    0   13  190.79352   93.90539  50.8%     -    0s
H    0     0                     116.8267815   93.90539  19.6%     -    0s
     0     0   96.82350    0   12  116.82678   96.82350  17.1%     -    0s
H    0     0                     116.6129224   97.22556  16.6%     -    0s
     0     0   97.22556    0   12  116.61292   97.22556  16.6%     -    0s
     0     0   97.71410    0   13  116.61292   97.71410  16.2%     -    0s
     0     0   97.74042    0   13  116.61292   97.74042  16.2%     -    0s
     0     0   97.74042    0   13  116.61292   97.74042  16.2%     -    0s
     0     0   98.04131    0   10  116.61292   98.04131  15.9%     -    0s
     0     0   98.04131    0   10  116.61292   98.04131  15.9%     -    0s
     0     0   98.20951    0   11  116.61292   98.20951  15.8%     -    0s
H    0     0                     112.8517862   98.20951  13.0%     -    0s
     0     0   98.23985    0   11  112.85179   98.23985  12.9%     -    0s
     0     0   98.26798    0   11  112.85179   98.26798  12.9%     -    0s
     0     0   98.26798    0   11  112.85179   98.26798  12.9%     -    0s
     0     0   98.27458    0   11  112.85179   98.27458  12.9%     -    0s
     0     0   98.27458    0   11  112.85179   98.27458  12.9%     -    0s
     0     0   98.28164    0   11  112.85179   98.28164  12.9%     -    0s
H    0     0                     104.8397874   98.28164  6.26%     -    1s
     0     2   98.28164    0   11  104.83979   98.28164  6.26%     -    1s

Cutting planes:
  Gomory: 5
  Implied bound: 10
  MIR: 115
  Relax-and-lift: 3

Explored 76 nodes (4769 simplex iterations) in 1.71 seconds (1.31 work units)
Thread count was 36 (of 36 available processors)

Solution count 5: 104.84 112.852 116.613 ... 190.794

Optimal solution found (tolerance 1.00e-02)
Best objective 1.048397874319e+02, best bound 1.048397874319e+02, gap 0.0000%

Gurobi 9.5.0 (linux64) logging started Wed Nov 15 11:41:03 2023

Set parameter LogFile to value "/lustre1/scratch/348/vsc34888/JointResearch/05.Models/06.Benchmarking/D.Representative_days_based_on_RES_and_Demand/RTS24_mod1_ByStages_nc20/openStarNet_RTS24_mod1_ByStages_nc20.log"
Set parameter Method to value 2
Set parameter MIPFocus to value 1
Set parameter Presolve to value 2
Set parameter RINS to value 100
Set parameter MIPGap to value 0.01
Set parameter Threads to value 36
Set parameter TimeLimit to value 604800
Set parameter IterationLimit to value 760000000
No parameters matching 'relax_integrality' found
Gurobi Optimizer version 9.5.0 build v9.5.0rc5 (linux64)
Thread count: 36 physical cores, 36 logical processors, using up to 36 threads
Optimize a model with 8118 rows, 5155 columns and 18776 nonzeros
Model fingerprint: 0xf92ffde8
Coefficient statistics:
  Matrix range     [1e-02, 3e+04]
  Objective range  [1e+00, 1e+00]
  Bounds range     [4e-05, 2e+00]
  RHS range        [4e-05, 3e+01]
Presolve removed 6186 rows and 2276 columns
Presolve time: 0.01s
Presolved: 1932 rows, 2900 columns, 7205 nonzeros

Ordering time: 0.00s

Barrier statistics:
 AA' NZ     : 4.942e+03
 Factor NZ  : 2.060e+04 (roughly 2 MB of memory)
 Factor Ops : 3.070e+05 (less than 1 second per iteration)
 Threads    : 1

                  Objective                Residual
Iter       Primal          Dual         Primal    Dual     Compl     Time
   0   6.12458127e+05 -6.56292019e+07  4.81e+00 3.43e+02  2.40e+04     0s
   1   6.72722994e+04 -9.30000131e+06  3.57e-01 2.05e-11  2.33e+03     0s
   2   3.55466926e+04 -8.47191334e+05  7.84e-02 1.82e-11  2.04e+02     0s
   3   1.51462305e+04 -1.13882921e+05  3.22e-03 1.09e-11  2.63e+01     0s
   4   2.62118001e+03 -1.47607072e+04  1.69e-04 7.28e-12  3.51e+00     0s
   5   6.95003649e+02 -1.97828568e+03  2.37e-05 6.97e-12  5.40e-01     0s
   6   2.50988785e+02 -4.13771335e+02  3.75e-09 3.64e-12  1.34e-01     0s
   7   1.88829286e+02 -1.12272676e+02  1.93e-09 3.64e-12  6.08e-02     0s
   8   1.39271279e+02  4.84676976e+01  7.39e-10 3.64e-12  1.83e-02     0s
   9   1.12658168e+02  9.76164078e+01  1.33e-10 7.28e-12  3.04e-03     0s
  10   1.05482760e+02  1.02860412e+02  8.14e-12 3.64e-12  5.30e-04     0s
  11   1.04880369e+02  1.04542758e+02  7.27e-12 3.64e-12  6.82e-05     0s
  12   1.04839926e+02  1.04839449e+02  6.60e-12 3.64e-12  9.64e-08     0s
  13   1.04839788e+02  1.04839787e+02  1.39e-12 7.28e-12  9.64e-11     0s
  14   1.04839787e+02  1.04839787e+02  1.97e-12 7.28e-12  9.64e-14     0s

Barrier solved model in 14 iterations and 0.03 seconds (0.03 work units)
Optimal objective 1.04839787e+02

Crossover log...

     265 DPushes remaining with DInf 0.0000000e+00                 0s
       0 DPushes remaining with DInf 0.0000000e+00                 0s

      85 PPushes remaining with PInf 0.0000000e+00                 0s
       0 PPushes remaining with PInf 0.0000000e+00                 0s

  Push phase complete: Pinf 0.0000000e+00, Dinf 2.5411106e-12      0s

Iteration    Objective       Primal Inf.    Dual Inf.      Time
      93    1.0483979e+02   0.000000e+00   0.000000e+00      0s

Use crossover to convert LP symmetric solution to basic solution...
Crossover log...

       0 DPushes remaining with DInf 0.0000000e+00                 0s

      37 PPushes remaining with PInf 0.0000000e+00                 0s
       0 PPushes remaining with PInf 0.0000000e+00                 0s

  Push phase complete: Pinf 0.0000000e+00, Dinf 2.2230102e-12      0s

Iteration    Objective       Primal Inf.    Dual Inf.      Time
     136    1.0483979e+02   0.000000e+00   0.000000e+00      0s

Solved in 136 iterations and 0.04 seconds (0.03 work units)
Optimal objective  1.048397874e+02
